12
0 59 50 35 71 87 55 62 64 88 32 40
59 0 54 30 51 56 61 38 61 64 55 28
50 54 0 15 49 39 43 30 65 71 25 52
35 30 15 0 58 66 50 57 51 44 73 24
71 51 49 58 0 30 60 57 71 27 71 65
87 56 39 66 30 0 41 52 29 53 58 96
55 61 43 50 60 41 0 26 74 55 50 85
62 38 30 57 57 52 26 0 58 86 75 52
64 61 65 51 71 29 74 58 0 59 43 95
88 64 71 44 27 53 55 86 59 0 42 63
32 55 25 73 71 58 50 75 43 42 0 61
40 28 52 24 65 96 85 52 95 63 61 0
